Version identifier: 22.1.0.0 | 2022-03-09 | 1a383f8ce
CPXPARAM_Read_DataCheck                          1
CPXPARAM_Threads                                 1
CPXPARAM_TimeLimit                               3600
Tried aggregator 2 times.
MIP Presolve eliminated 739 rows and 103 columns.
MIP Presolve modified 3161 coefficients.
Aggregator did 16 substitutions.
Reduced MIP has 676 rows, 121 columns, and 3221 nonzeros.
Reduced MIP has 72 binaries, 0 generals, 0 SOSs, and 0 indicators.
Presolve time = 0.01 sec. (5.49 ticks)
Found incumbent of value 63.270408 after 0.02 sec. (7.95 ticks)
Probing fixed 4 vars, tightened 19 bounds.
Probing time = 0.00 sec. (1.48 ticks)
Tried aggregator 1 time.
Detecting symmetries...
MIP Presolve eliminated 8 rows and 4 columns.
MIP Presolve modified 133 coefficients.
Reduced MIP has 668 rows, 117 columns, and 3169 nonzeros.
Reduced MIP has 68 binaries, 0 generals, 0 SOSs, and 0 indicators.
Presolve time = 0.00 sec. (2.06 ticks)
Probing time = 0.00 sec. (1.39 ticks)
Clique table members: 496.
MIP emphasis: balance optimality and feasibility.
MIP search method: dynamic search.
Parallel mode: none, using 1 thread.
Root relaxation solution time = 0.00 sec. (1.76 ticks)

        Nodes                                         Cuts/
   Node  Left     Objective  IInf  Best Integer    Best Bound    ItCnt     Gap

*     0+    0                           63.2704       56.3503            10.94%
      0     0       56.3503    28       63.2704       56.3503       71   10.94%
      0     0       56.3503    24       63.2704      Cuts: 97      176   10.94%
*     0+    0                           56.6514       56.3503             0.53%
      0     0       56.3503    18       56.6514      Cuts: 53      367    0.53%
*     0+    0                           56.3518       56.3503             0.00%
      0     0  -1.00000e+75     0       56.3518       56.3503      367    0.00%
      0     0        cutoff             56.3518       56.3503      367    0.00%
Elapsed time = 0.07 sec. (36.86 ticks, tree = 0.01 MB, solutions = 3)

GUB cover cuts applied:  3
Clique cuts applied:  10
Cover cuts applied:  5
Implied bound cuts applied:  6
Mixed integer rounding cuts applied:  18
Zero-half cuts applied:  1
Gomory fractional cuts applied:  4

Root node processing (before b&c):
  Real time             =    0.07 sec. (36.88 ticks)
Sequential b&c:
  Real time             =    0.00 sec. (0.00 ticks)
                          ------------
Total (root+branch&cut) =    0.07 sec. (36.88 ticks)
